
Gurobi 11.0.3 (linux64) logging started Thu Apr 16 01:23:14 2026

Set parameter LogFile to value "tree/results/ceva/ceva_depth-3_run-1/Full MIP/LogFile_FullModel.txt"
Gurobi Optimizer version 11.0.3 build v11.0.3rc0 (linux64 - "CentOS Linux 7 (Core)")

CPU model: Intel(R) Xeon(R) Platinum 8260 CPU @ 2.40GHz, instruction set [SSE2|AVX|AVX2|AVX512]
Thread count: 96 physical cores, 192 logical processors, using up to 32 threads

Optimize a model with 104189 rows, 72955 columns and 1636277 nonzeros
Model fingerprint: 0xf10ff6a2
Model has 10368 general constraints
Variable types: 41714 continuous, 31241 integer (31241 binary)
Coefficient statistics:
  Matrix range     [8e-04, 1e+04]
  Objective range  [8e-04, 1e+04]
  Bounds range     [1e+00, 1e+03]
  RHS range        [1e-04, 1e+03]

User MIP start produced solution with objective -213099 (0.53s)
Loaded user MIP start with objective -213099

Presolve added 10360 rows and 31104 columns
Presolve time: 2.23s
Presolved: 114549 rows, 104059 columns, 1698585 nonzeros
Presolved model has 31104 SOS constraint(s)
Variable types: 41714 continuous, 62345 integer (62345 binary)

Deterministic concurrent LP optimizer: primal simplex, dual simplex, and barrier
Showing barrier log only...

Root relaxation presolved: 114549 rows, 104059 columns, 1698585 nonzeros

Root barrier log...

Ordering time: 0.07s

Barrier statistics:
 Dense cols : 112
 AA' NZ     : 1.682e+06
 Factor NZ  : 5.330e+06 (roughly 140 MB of memory)
 Factor Ops : 2.727e+08 (less than 1 second per iteration)
 Threads    : 30

                  Objective                Residual
Iter       Primal          Dual         Primal    Dual     Compl     Time
   0  -1.67746957e+05  1.00247165e+09  1.50e+04 1.97e-14  7.98e+05     5s
   1  -1.28554072e+05  1.54875796e+09  5.24e+03 2.99e+01  2.65e+05     6s
   2  -8.71272344e+04  1.53084833e+09  5.32e+02 3.99e+00  3.20e+04     6s
   3  -1.17646693e+04  8.49490354e+08  5.19e+01 4.57e-01  5.35e+03     6s
   4  -1.17917391e+03  1.39688260e+08  3.24e+00 4.64e-02  6.79e+02     7s
   5  -1.17442771e+02  1.61747564e+07  2.23e-01 4.63e-03  7.33e+01     7s
   6  -1.12693221e+01  1.65044226e+06  2.25e-02 4.65e-04  7.33e+00     7s
   7  -6.48587266e-01  1.70503575e+05  2.49e-03 4.80e-05  7.55e-01     8s
   8   4.50253704e-01  2.31532081e+04  3.84e-04 6.51e-06  1.03e-01     8s
   9   9.20088926e-01  5.43106823e+03  3.80e-05 1.48e-06  2.41e-02     8s
  10   7.63611057e-01  9.27225051e+02  3.77e-06 2.47e-07  4.11e-03     9s
  11   9.76306506e-01  9.78128862e+01  3.73e-07 2.47e-08  4.29e-04     9s
  12   9.97630651e-01  1.06906785e+01  3.73e-08 2.47e-09  4.29e-05     9s
  13   9.99763053e-01  1.97789281e+00  3.70e-09 2.47e-10  4.33e-06    10s
  14   9.99976305e-01  1.09778930e+00  3.70e-10 2.47e-11  4.33e-07    10s
  15   9.99997631e-01  1.00986747e+00  3.68e-11 2.47e-12  4.37e-08    11s
  16   9.99999763e-01  1.00098675e+00  4.11e-12 2.47e-13  4.37e-09    11s
  17   9.99999976e-01  1.00009868e+00  6.25e-13 2.47e-14  4.37e-10    11s
  18   9.99999998e-01  1.00000987e+00  4.26e-13 2.84e-14  4.37e-11    12s
  19   1.00000000e+00  1.00000099e+00  4.30e-13 2.48e-16  4.37e-12    13s
  20   1.00000000e+00  1.00000010e+00  4.26e-13 2.48e-17  4.37e-13    13s
  21   1.00000000e+00  1.00000001e+00  4.12e-13 2.48e-18  4.37e-14    13s

Barrier solved model in 21 iterations and 13.36 seconds (8.02 work units)
Optimal objective 1.00000000e+00


Root crossover log...

    5240 DPushes remaining with DInf 0.0000000e+00                14s
       0 DPushes remaining with DInf 0.0000000e+00                14s

   39843 PPushes remaining with PInf 0.0000000e+00                14s
       0 PPushes remaining with PInf 0.0000000e+00                14s

  Push phase complete: Pinf 0.0000000e+00, Dinf 0.0000000e+00     15s


Root simplex log...

Iteration    Objective       Primal Inf.    Dual Inf.      Time
   39847    1.0000000e+00   0.000000e+00   0.000000e+00     15s
   39847    1.0000000e+00   0.000000e+00   0.000000e+00     15s
Concurrent spin time: 0.00s

Solved with barrier

Root relaxation: objective 1.000000e+00, 39847 iterations, 11.40 seconds (6.36 work units)
Total elapsed time = 15.07s (DegenMoves)
Total elapsed time = 56.67s (DegenMoves)

    Nodes    |    Current Node    |     Objective Bounds      |     Work
 Expl Unexpl |  Obj  Depth IntInf | Incumbent    BestBd   Gap | It/Node Time

     0     0    1.00000    0 9275 -213099.21    1.00000   100%     -   57s
     0     2    1.00000    0 9275 -213099.21    1.00000   100%     -  298s
     1     4    1.00000    1 9158 -213099.21    1.00000   100%  2341  372s
     3     8    1.00000    2 9079 -213099.21    1.00000   100%  3623  478s
H    5     8                    -213099.2091    1.00000   100%  2174  478s
    15    31    1.00000    4 6625 -213099.21    1.00000   100%  4724 3600s

Explored 30 nodes (367850 simplex iterations) in 3600.24 seconds (8044.70 work units)
Thread count was 32 (of 192 available processors)

Solution count 2: -213099 -213099 

Time limit reached
Best objective -2.130992090746e+05, best bound 1.000000000000e+00, gap 100.0005%

User-callback calls 170957, time in user-callback 1.18 sec
